n = 75;
m = 3;
capacities = [228, 205, 185];
profits = [776, 166, 973, 50, 859, 508, 260, 495, 918, 823, 205, 808, 680, 372, 23, 953, 380, 578, 950, 446, 825, 58, 256, 173, 775, 151, 553, 113, 453, 972, 558, 727, 204, 262, 484, 670, 866, 396, 382, 255, 445, 510, 794, 666, 495, 163, 65, 706, 577, 741, 985, 230, 514, 222, 815, 872, 445, 998, 787, 21, 252, 922, 773, 591, 708, 614, 193, 362, 726, 299, 926, 570, 548, 389, 231];
weights = [28, 71, 86, 67, 49, 92, 61, 41, 93, 55, 54, 87, 31, 98, 27, 41, 19, 90, 41, 75, 44, 26, 74, 20, 96, 83, 89, 71, 79, 38, 63, 60, 33, 29, 37, 61, 22, 32, 55, 25, 89, 24, 11, 49, 15, 82, 13, 97, 12, 63, 34, 32, 43, 57, 75, 63, 75, 18, 26, 36, 49, 18, 89, 42, 64, 29, 33, 91, 74, 33, 91, 62, 97, 99, 75];